%chk=FX_OPT_WB97XD_6-311++GDP_G_251022.chk
# opt wb97xd/6-311++g(d,p) geom=connectivity

Title Card Required

0 1
 C                 -2.99567900    0.00004400   -2.99873300
 C                 -3.28650200    0.00001400   -1.64352400
 C                 -2.24052900    0.00002200   -0.73997300
 C                 -0.92055400    0.00004100   -1.18399900
 C                 -0.63207400    0.00009200   -2.52957200
 C                 -1.68056100    0.00008800   -3.43886200
 H                 -3.79441300    0.00004100   -3.71362400
 H                 -4.30458200    0.00000000   -1.30744500
 H                  0.38460500    0.00014500   -2.86857800
 C                 -2.24165400    0.00009700    0.73723100
 C                 -0.92233300    0.00010000    1.18325100
 C                 -3.28897500    0.00016200    1.63920100
 C                 -0.63586600    0.00019500    2.52924200
 C                 -3.00017300    0.00026000    2.99486500
 H                 -4.30655000    0.00013400    1.30160100
 C                 -1.68573100    0.00029500    3.43696400
 H                  0.38031200    0.00023900    2.86973500
 H                 -3.79999000    0.00031100    3.70854400
 C                  0.05538300    0.00002700    0.00039600
 C                  0.91246900    1.26447200    0.00098000
 C                  2.28831600    1.19945800    0.00007500
 C                  0.31533100    2.52226900    0.00205900
 C                  3.06820800    2.34693500    0.00024800
 C                  1.07396600    3.67045400    0.00217700
 H                 -0.75396300    2.58400300    0.00278200
 C                  2.46185200    3.57994700    0.00125000
 H                  4.13194200    2.23566800   -0.00041100
 H                  0.59621400    4.62914900    0.00298500
 H                  3.06025000    4.46881100    0.00137600
 C                  0.91227200   -1.26456200    0.00098400
 C                  0.31494200   -2.52228700    0.00208300
 C                  2.28810800   -1.19976000    0.00017600
 C                  1.07341500   -3.67056300    0.00229600
 H                 -0.75436000   -2.58386500    0.00275400
 C                  3.06786000   -2.34734600    0.00047200
 C                  2.46133200   -3.58026200    0.00148100
 H                  0.59553500   -4.62919600    0.00311000
 H                  4.13160400   -2.23619600   -0.00010600
 H                  3.05958100   -4.46922600    0.00169900
 O                  2.96849600   -0.00021200   -0.00092800
 O                 -1.40252413    0.00013870   -4.84157205
 O                 -1.40976757    0.00041775    4.84008344
 C                 -2.63196382   -0.00239999   -5.57189500
 H                 -3.19499083   -0.87655841   -5.31941205
 H                 -3.19743742    0.87074144   -5.32136824
 C                 -2.33177813   -0.00367019   -7.08235418
 H                 -1.76842214    0.87029543   -7.33477072
 H                 -1.76663274   -0.87700536   -7.33294624
 C                 -2.64028497    0.00321321    5.56858815
 H                 -3.20546347   -0.86993064    5.31740479
 H                 -3.20286240    0.87736856    5.31509441
 C                 -2.34233167    0.00476798    7.07948901
 H                 -1.77751725    0.87812705    7.33074308
 H                 -1.77938930   -0.86917326    7.33291079
 O                 -3.56121845   -0.00569231   -7.81267768
 H                 -3.37456369   -0.00588723   -8.75435701
 O                 -3.57284981    0.00698967    7.80799445
 H                 -3.38758690    0.00731894    8.74994856

 1 2 1.5 6 1.5 7 1.0
 2 3 2.0 8 1.0
 3 4 1.5 10 1.0
 4 5 2.0 19 1.0
 5 6 1.5 9 1.0
 6 41 1.0
 7
 8
 9
 10 11 1.5 12 2.0
 11 13 2.0 19 1.0
 12 14 1.5 15 1.0
 13 16 1.5 17 1.0
 14 16 1.5 18 1.0
 15
 16 42 1.0
 17
 18
 19 20 1.0 30 1.0
 20 21 2.0 22 1.5
 21 23 1.5 40 1.0
 22 24 2.0 25 1.0
 23 26 2.0 27 1.0
 24 26 1.5 28 1.0
 25
 26 29 1.0
 27
 28
 29
 30 31 1.5 32 2.0
 31 33 2.0 34 1.0
 32 35 1.5 40 1.0
 33 36 1.5 37 1.0
 34
 35 36 2.0 38 1.0
 36 39 1.0
 37
 38
 39
 40
 41 43 1.0
 42 49 1.0
 43 44 1.0 45 1.0 46 1.0
 44
 45
 46 47 1.0 48 1.0 55 1.0
 47
 48
 49 50 1.0 51 1.0 52 1.0
 50
 51
 52 53 1.0 54 1.0 57 1.0
 53
 54
 55 56 1.0
 56
 57 58 1.0
 58

