%nprocshared=1
%mem=4GB
%chk=PC-FX_OPT_WB97XD_6-311++GDP_G_251023.chk
# opt wb97xd/6-311++g(d,p) geom=connectivity

Title Card Required

0 1
 C                 -2.52361600   -2.22955200   -0.00009600
 C                 -1.16287100   -2.56436700   -0.00001800
 C                 -0.20328800   -1.55357400    0.00001400
 C                 -0.61278000   -0.20085600   -0.00003400
 C                 -1.95249000    0.14317100   -0.00010900
 C                 -2.90885400   -0.88371800   -0.00014000
 H                 -3.26253000   -3.01664200   -0.00012600
 H                 -0.87333300   -3.60731900    0.00001600
 H                 -2.28956700    1.16990200   -0.00014400
 C                  1.26486300   -1.60321900    0.00009400
 C                  1.76574900   -0.28137100    0.00009700
 C                  2.15372100   -2.67773900    0.00016700
 C                  3.12670400   -0.03176000    0.00016400
 C                  3.53379100   -2.43745100    0.00023800
 H                  1.79323100   -3.69829500    0.00017100
 C                  4.01237500   -1.12092800    0.00023300
 H                  3.53141000    0.97006400    0.00016300
 H                  4.21745200   -3.27288300    0.00030700
 C                  0.61562200    0.74245600    0.00001300
 C                  0.62225100    1.61409100    1.26405000
 C                  0.29511000    2.97122000    1.20767300
 C                  0.89717500    1.06736100    2.52816000
 C                  0.23030700    3.76747300    2.35337800
 C                  0.83705400    1.84399500    3.68285200
 H                  1.15649600    0.02011900    2.59778600
 C                  0.49846900    3.20058400    3.59481300
 H                 -0.02578800    4.81098900    2.24265100
 H                  1.05049200    1.39731800    4.64415900
 H                  0.44928700    3.81061900    4.48648100
 C                  0.62238600    1.61404000   -1.26405800
 C                  0.89744600    1.06726200   -2.52811700
 C                  0.29523900    2.97117300   -1.20776900
 C                  0.83744800    1.84385000   -3.68284600
 H                  1.15677200    0.02001700   -2.59767500
 C                  0.23055900    3.76738000   -2.35351300
 C                  0.49885400    3.20044300   -3.59489700
 H                  1.05099000    1.39713600   -4.64411300
 H                 -0.02554900    4.81090100   -2.24285400
 H                  0.44976700    3.81044300   -4.48659400
 O                  0.00818500    3.62357400   -0.00007700
 O                 -4.23871500   -0.45310100   -0.00022400
 O                  5.36614700   -0.78371200    0.00031800
 C                 -5.31044800   -1.43434400   -0.00014300
 H                 -5.25676000   -2.06560400   -0.88985900
 H                 -5.25669500   -2.06551300    0.88963200
 C                 -6.58983200   -0.62356100   -0.00016300
 H                 -6.66578300    0.00453900    0.88478500
 H                 -6.66569000    0.00455400   -0.88511000
 C                  6.37028100   -1.83769900    0.00016500
 H                  6.27285600   -2.46279300   -0.88978100
 H                  6.27308600   -2.46283500    0.89010700
 C                  7.71262600   -1.13430900    0.00002400
 H                  7.80775900   -0.50274200    0.88932000
 H                  7.80761400   -0.50280100   -0.88933000
 O                 -7.67755700   -1.61727300   -0.00022500
 O                  8.71358200   -2.18235700   -0.00002300
 C                 -8.97506000   -1.13916500    0.00006000
 C                 10.07720400   -1.69254600   -0.00025000
 H                 10.28306300   -1.09171600    0.89190200
 H                 10.71623500   -2.57072400   -0.00025500
 H                 10.28282200   -1.09188000   -0.89256800
 C                 -9.96528400   -2.26366800   -0.00000700
 H                -10.97245900   -1.85881300    0.00028600
 H                 -9.82137100   -2.89319600   -0.87854300
 H                 -9.82102000   -2.89362200    0.87816700
 O                 -9.23502300    0.06321100    0.00033100

 1 2 1.5 6 1.5 7 1.0
 2 3 1.5 8 1.0
 3 4 1.5 10 1.0
 4 5 2.0 19 1.0
 5 6 1.5 9 1.0
 6 41 1.0
 7
 8
 9
 10 11 1.5 12 1.5
 11 13 2.0 19 1.0
 12 14 1.5 15 1.0
 13 16 1.5 17 1.0
 14 16 1.5 18 1.0
 15
 16 42 1.0
 17
 18
 19 20 1.0 30 1.0
 20 21 1.5 22 1.5
 21 23 1.5 40 1.0
 22 24 1.5 25 1.0
 23 26 1.5 27 1.0
 24 26 1.5 28 1.0
 25
 26 29 1.0
 27
 28
 29
 30 31 1.5 32 1.5
 31 33 1.5 34 1.0
 32 35 1.5 40 1.0
 33 36 1.5 37 1.0
 34
 35 36 1.5 38 1.0
 36 39 1.0
 37
 38
 39
 40
 41 43 1.0
 42 49 1.0
 43 44 1.0 45 1.0 46 1.0
 44
 45
 46 47 1.0 48 1.0 55 1.0
 47
 48
 49 50 1.0 51 1.0 52 1.0
 50
 51
 52 53 1.0 54 1.0 56 1.0
 53
 54
 55 57 1.0
 56 58 1.0
 57 62 1.0 66 2.0
 58 59 1.0 60 1.0 61 1.0
 59
 60
 61
 62 63 1.0 64 1.0 65 1.0
 63
 64
 65
 66

