%nprocshared=1
%mem=4GB
%chk=DBFX_EN_WB97XD_6-311++GDP_G_251026.chk
# wb97xd/6-311++g(d,p) geom=connectivity polar cphf=rdfreq

Title Card Required

0 1
 C                 -0.00000900   -0.07571100   -0.37103400
 C                 -1.24728300    0.02111500    0.49474600
 C                  1.24728500    0.02050700    0.49478400
 C                 -2.47492800   -0.45499500    0.03877200
 C                 -1.17895600    0.67018400    1.73279800
 C                 -0.00032000   -1.31882300   -1.25115600
 C                  0.00030100    1.03582500   -1.42717800
 C                  2.47471400   -0.45618200    0.03885500
 C                  1.17923500    0.66966400    1.73281200
 C                 -3.57977500   -0.25227300    0.83605800
 H                 -2.55580300   -0.96025200   -0.91554400
 C                 -2.29619800    0.86835800    2.53145800
 O                  0.00024600    1.16903700    2.22161900
 C                 -0.00027000   -0.97204400   -2.60720900
 C                 -0.00061500   -2.63406100   -0.84345800
 C                  0.00011900    0.49152400   -2.71700100
 C                  0.00075200    2.39576200   -1.21710500
 C                  3.57964900   -0.25390800    0.83614700
 H                  2.55539800   -0.96150500   -0.91544300
 C                  2.29656100    0.86741100    2.53145500
 C                 -3.51863400    0.40198000    2.07009300
 O                 -4.85488400   -0.65320200    0.53782200
 H                 -2.18721500    1.37241200    3.48367500
 C                 -0.00051000   -1.97063900   -3.56739600
 C                 -0.00085400   -3.63838000   -1.81584500
 H                 -0.00066700   -2.90926500    0.20507700
 C                  0.00038700    1.33561400   -3.81395100
 C                  0.00104500    3.24384000   -2.32902600
 H                  0.00088100    2.82689000   -0.22216100
 C                  3.51880200    0.40045900    2.07012600
 O                  4.85458600   -0.65539100    0.53791400
 H                  2.18779700    1.37155900    3.48364700
 C                 -4.87937600    0.39883300    2.57138400
 C                 -5.62965500   -0.25577200    1.58873300
 C                 -0.00080200   -3.30741600   -3.17255300
 H                 -0.00050600   -1.72749700   -4.62440600
 O                 -0.00112000   -4.91062300   -1.34279100
 C                  0.00086000    2.71661200   -3.62153000
 H                  0.00021300    0.93856000   -4.82340100
 O                  0.00156300    4.57233400   -2.04931300
 C                  4.87955100    0.39679900    2.57139000
 C                  5.62954300   -0.25819500    1.58877600
 C                 -5.51616500    0.87067000    3.71676700
 C                 -6.99407100   -0.46254500    1.69437600
 H                 -0.00098600   -4.08042100   -3.92964700
 C                 -0.00158200   -5.97918900   -2.26704300
 H                  0.00108200    3.36848400   -4.48497400
 C                  0.00145800    5.49226900   -3.12119700
 C                  5.51656500    0.86849000    3.71670900
 C                  6.99387800   -0.46551100    1.69440100
 C                 -6.88354700    0.67326100    3.84268700
 H                 -4.95594200    1.38094400    4.49197600
 C                 -7.61055700    0.01533500    2.84357400
 H                 -7.54595000   -0.97263600    0.91512000
 C                 -0.00199300   -7.25861700   -1.45570100
 H                  0.88947600   -5.94496400   -2.90510900
 H                 -0.89271000   -5.94430800   -2.90497300
 C                  0.00165000    6.87746000   -2.50767500
 H                  0.89243200    5.36376900   -3.74727200
 H                 -0.88972500    5.36386200   -3.74699200
 C                  6.88387200    0.67054700    3.84260600
 H                  4.95657000    1.37905300    4.49189200
 C                  7.61058800    0.01223100    2.84353600
 H                  7.54552700   -0.97590400    0.91518000
 H                 -7.39898200    1.03244600    4.72570000
 H                 -8.67816900   -0.12508700    2.96820200
 O                 -0.00223300   -8.32466400   -2.38621900
 H                  0.88777600   -7.28050900   -0.81485800
 H                 -0.89185700   -7.27998000   -0.81497100
 O                  0.00144700    7.79527900   -3.58492000
 H                 -0.88803300    6.99343400   -1.87688800
 H                  0.89162500    6.99333100   -1.87728200
 H                  7.39947800    1.02961400    4.72556600
 H                  8.67814600   -0.12861000    2.96814800
 H                 -0.00342900   -9.15422000   -1.90978400
 H                  0.00245800    8.68570800   -3.23527500

 1 2 1.0 3 1.0 6 1.0 7 1.0
 2 4 1.5 5 1.5
 3 8 1.5 9 1.5
 4 10 2.0 11 1.0
 5 12 1.5 13 1.0
 6 14 1.5 15 2.0
 7 16 1.5 17 2.0
 8 18 2.0 19 1.0
 9 13 1.0 20 1.5
 10 21 1.5 22 1.0
 11
 12 21 1.5 23 1.0
 13
 14 16 1.0 24 2.0
 15 25 1.5 26 1.0
 16 27 2.0
 17 28 1.5 29 1.0
 18 30 1.5 31 1.0
 19
 20 30 1.5 32 1.0
 21 33 1.0
 22 34 1.0
 23
 24 35 1.5 36 1.0
 25 35 1.5 37 1.0
 26
 27 38 1.5 39 1.0
 28 38 1.5 40 1.0
 29
 30 41 1.0
 31 42 1.0
 32
 33 34 1.5 43 1.5
 34 44 2.0
 35 45 1.0
 36
 37 46 1.0
 38 47 1.0
 39
 40 48 1.0
 41 42 1.5 49 1.5
 42 50 2.0
 43 51 1.5 52 1.0
 44 53 1.5 54 1.0
 45
 46 55 1.0 56 1.0 57 1.0
 47
 48 58 1.0 59 1.0 60 1.0
 49 61 1.5 62 1.0
 50 63 1.5 64 1.0
 51 53 1.5 65 1.0
 52
 53 66 1.0
 54
 55 67 1.0 68 1.0 69 1.0
 56
 57
 58 70 1.0 71 1.0 72 1.0
 59
 60
 61 63 1.5 73 1.0
 62
 63 74 1.0
 64
 65
 66
 67 75 1.0
 68
 69
 70 76 1.0
 71
 72
 73
 74
 75
 76

486.1nm 587.6nm 589.3nm 656.3nm


