%nprocshared=1
%mem=4GB
%chk=PC-DBFX_EN_WB97XD_6-311++GDP_G_251103.chk
# wb97xd/6-311++g(d,p) geom=connectivity polar cphf=rdfreq

Title Card Required

0 1
 C                 -3.01460700   -0.00086200   -2.86508100
 C                 -1.69504500   -0.00062000   -3.31503000
 C                 -0.65812800   -0.00034300   -2.39658500
 C                 -0.94900300   -0.00031900   -1.02724300
 C                 -2.24609600   -0.00055300   -0.56547500
 C                 -3.28831300   -0.00081500   -1.49630700
 H                 -3.81774700   -0.00107900   -3.59026200
 H                 -1.49556600   -0.00066700   -4.38110700
 H                 -2.47817500   -0.00052700    0.49339700
 C                  0.79976000   -0.00001200   -2.56604400
 C                  1.39604200    0.00021600   -1.29942700
 C                  1.59839300    0.00014700   -3.69656400
 C                  2.76328400    0.00060700   -1.14475300
 C                  2.98596900    0.00054900   -3.56042400
 H                  1.16067400   -0.00006100   -4.68908100
 C                  3.56544500    0.00078600   -2.29029300
 H                  3.23450800    0.00076700   -0.16813700
 H                  3.60219300    0.00068600   -4.44960300
 C                  0.32910600   -0.00000200   -0.19854900
 C                  0.45974700   -1.24773300    0.66201300
 C                  1.14614800   -1.17914500    1.87953800
 C                 -0.02440800   -2.47675900    0.21780400
 C                  1.37320200   -2.29759700    2.66913600
 C                  0.20700800   -3.58243800    1.00571700
 H                 -0.55798000   -2.55797500   -0.72097300
 C                  0.89815900   -3.52088400    2.21960100
 H                  1.90557800   -2.18847400    3.60578200
 C                  0.45916400    1.24779300    0.66198100
 C                 -0.02558600    2.47657400    0.21776400
 C                  1.14559700    1.17955300    1.87951600
 C                  0.20529900    3.58237700    1.00567300
 H                 -0.55919800    2.55754300   -0.72101100
 C                  1.37212200    2.29811800    2.66909300
 C                  0.89648000    3.52117900    2.21954700
 H                  1.90455500    2.18926100    3.60573800
 O                  1.65516800    0.00032600    2.35641200
 O                 -4.54163700   -0.00102600   -0.96988100
 O                  4.90381000    0.00119300   -2.06502700
 C                 -5.64505800   -0.00126500   -1.84809400
 H                 -5.63650000    0.88956200   -2.48782800
 H                 -5.63639300   -0.89235300   -2.48746800
 C                 -6.88011600   -0.00114000   -0.97215800
 H                 -6.90864900   -0.88653700   -0.33377700
 H                 -6.90890100    0.88464800   -0.33434600
 C                  5.77946500    0.00113100   -3.17375500
 H                  5.62505600    0.89207100   -3.79372000
 H                  5.62522500   -0.88999400   -3.79349000
 C                  7.18792700    0.00136500   -2.61611600
 H                  7.33903200   -0.88805500   -1.98729500
 H                  7.33868400    0.89082000   -1.98725800
 O                 -7.99555600   -0.00160200   -1.86556200
 O                  8.06896400    0.00155300   -3.70961000
 C                 -9.21467700   -0.00078900   -1.29426700
 C                  9.41917100    0.00139100   -3.32074900
 H                  9.66472700   -0.89134900   -2.72874800
 H                 10.02000600    0.00162800   -4.23008000
 H                  9.66479900    0.89377700   -2.72824400
 C                -10.29760500   -0.00213800   -2.33550500
 H                -11.26926200    0.00275500   -1.84684600
 H                -10.19616600    0.87569700   -2.97664700
 H                -10.20130600   -0.88676900   -2.96812600
 O                 -9.38084500    0.00048200   -0.10475400
 C                  0.23545400   -5.63383500    1.75362200
 C                  0.91626800   -4.88275000    2.71759200
 C                  1.42562600   -5.51983100    3.84661100
 C                  1.23820700   -6.88833500    3.97529500
 C                  0.55340500   -7.61613300    2.99501500
 C                  0.03787300   -6.99933800    1.86238600
 H                  1.95652600   -4.95897400    4.60735400
 H                  1.62628500   -7.40400900    4.84583800
 H                  0.42133600   -8.68457400    3.12157200
 H                 -0.49353800   -7.55181200    1.09795800
 C                  0.54971800    7.61626400    2.99491700
 C                  1.23488200    6.88881400    3.97520200
 C                  1.42297200    5.52040100    3.84653300
 C                  0.91393700    4.88306100    2.71751400
 C                  0.23274300    5.63379800    1.75354000
 C                  0.03448800    6.99920500    1.86229400
 H                  0.41712000    8.68464100    3.12146200
 H                  1.62270400    7.40468700    4.84574200
 H                  1.95414900    4.95981200    4.60728000
 H                 -0.49720100    7.55141000    1.09786500
 O                 -0.19710000   -4.85851400    0.71681500
 O                 -0.19944000    4.85825000    0.71675100

 1 2 1.5 6 1.5 7 1.0
 2 3 2.0 8 1.0
 3 4 1.5 10 1.0
 4 5 2.0 19 1.0
 5 6 1.5 9 1.0
 6 37 1.0
 7
 8
 9
 10 11 1.5 12 2.0
 11 13 2.0 19 1.0
 12 14 1.5 15 1.0
 13 16 1.5 17 1.0
 14 16 1.5 18 1.0
 15
 16 38 1.0
 17
 18
 19 20 1.0 28 1.0
 20 21 1.5 22 1.5
 21 23 1.5 36 1.0
 22 24 2.0 25 1.0
 23 26 1.5 27 1.0
 24 26 1.5 83 1.0
 25
 26 64 1.0
 27
 28 29 1.5 30 1.5
 29 31 2.0 32 1.0
 30 33 1.5 36 1.0
 31 34 1.5 84 1.0
 32
 33 34 1.5 35 1.0
 34 76 1.0
 35
 36
 37 39 1.0
 38 45 1.0
 39 40 1.0 41 1.0 42 1.0
 40
 41
 42 43 1.0 44 1.0 51 1.0
 43
 44
 45 46 1.0 47 1.0 48 1.0
 46
 47
 48 49 1.0 50 1.0 52 1.0
 49
 50
 51 53 1.0
 52 54 1.0
 53 58 1.0 62 2.0
 54 55 1.0 56 1.0 57 1.0
 55
 56
 57
 58 59 1.0 60 1.0 61 1.0
 59
 60
 61
 62
 63 64 1.5 68 2.0 83 1.0
 64 65 1.5
 65 66 1.5 69 1.0
 66 67 1.5 70 1.0
 67 68 1.5 71 1.0
 68 72 1.0
 69
 70
 71
 72
 73 74 1.5 78 1.5 79 1.0
 74 75 1.5 80 1.0
 75 76 1.5 81 1.0
 76 77 1.5
 77 78 2.0 84 1.0
 78 82 1.0
 79
 80
 81
 82
 83
 84

486.1nm 587.6nm 589.3nm 656.3nm
