%nprocshared=1
%mem=4GB
%chk=XRD-DBFX_EN_WB97XD_6-311++GDP_G_251029.chk
# wb97xd/6-311++g(d,p) polar cphf=rdfreq

Title Card Required

0 1
O       8.415851    7.525689    6.590954
O       8.268386    2.053608    6.223693
O       7.846518   -0.995699    1.685766
O      11.552053    5.055992    0.848716
O       2.766893    3.520852    4.345210
C       8.611399    7.652773    7.958591
C       8.680298    8.857140    8.627154
H       8.616125    9.679009    8.175538
C       8.847274    8.790665    9.987388
H       8.874633    9.588007   10.484548
C       8.977371    7.574568   10.650791
H       9.113522    7.569236   11.580722
C       8.910409    6.373756    9.968543
H       8.993852    5.554730   10.422403
C       8.714819    6.411615    8.584752
C       8.551633    5.419470    7.528288
C       8.529520    4.035764    7.450438
H       8.671637    3.509299    8.216145
C       8.292772    3.444423    6.215841
C       8.070498    4.191465    5.057746
C       8.124514    5.584413    5.137390
H       7.998964    6.116033    4.372581
C       8.364729    6.156025    6.357630
C       7.688734    3.525473    3.736773
C       7.920329    2.025525    3.800264
C       8.170617    1.374463    5.014222
C       8.310027   -0.002133    5.104411
H       8.479002   -0.413956    5.932262
C       8.194977   -0.759661    3.947438
C       7.952048   -0.103622    2.743800
C       7.802748    1.255911    2.645311
H       7.624921    1.660269    1.815440
C       8.018362   -2.253032    2.246865
C       8.245460   -2.174293    3.618765
C       8.461889   -3.355909    4.332871
H       8.619268   -3.336891    5.259437
C       8.438536   -4.553699    3.642098
H       8.592356   -5.357617    4.104259
C       8.191346   -4.586936    2.276704
H       8.169739   -5.417337    1.836753
C       7.976274   -3.433404    1.545547
H       7.810479   -3.455443    0.620552
C       8.417289    4.223991    2.577557
C       9.781425    4.226657    2.316638
H      10.374891    3.722231    2.842963
C      10.244234    4.995916    1.255911
C      12.486720    4.204084    1.499331
H      12.564493    4.461274    2.431954
H      12.181329    3.284635    1.440327
H      13.351996    4.285311    1.067906
C       9.360363    5.785437    0.507480
H       9.693268    6.332876   -0.180602
C       8.014803    5.765708    0.770867
H       7.424655    6.285953    0.256881
C       7.529039    4.968011    1.806915
C       6.164903    4.747080    2.304299
C       4.933928    5.227689    1.891495
H       4.881982    5.814586    1.158992
C       3.777616    4.846614    2.554449
H       2.944779    5.187697    2.282985
C       3.852703    3.959159    3.621009
C       1.480771    4.003060    3.972116
H       0.818670    3.682773    4.603662
H       1.485811    4.973165    3.973238
H       1.261333    3.682773    3.082569
C       5.086945    3.467352    4.047722
H       5.136823    2.864813    4.767437
C       6.222203    3.873843    3.404511

486.1nm 587.6nm 589.3nm 656.3nm
