%chk=DBFX_OPT_WB97XD_6-311++GDP_G_251022.chk
# opt wb97xd/6-311++g(d,p) geom=connectivity

DBFX_OPT_WB97XD_6-311++GDP_G_251022

0 1
 C                 -0.45996637    0.06420391   -0.08889687
 C                  0.51209356    1.23148418    0.12105313
 C                  0.34390569   -1.22260107   -0.27043336
 C                  0.10846854    2.33445500    0.90729389
 C                  1.75681227    1.20020989   -0.46324389
 C                 -1.45157158   -0.14921842    1.06084527
 C                 -1.38403696    0.28616545   -1.29442356
 C                 -0.25103745   -2.44871507    0.10507828
 C                  1.61327517   -1.18401876   -0.78724159
 C                  0.95483763    3.37612891    1.02437711
 H                 -0.84642707    2.34190135    1.39426401
 C                  2.61274704    2.31590375   -0.33336195
 O                  2.20244218    0.05685190   -1.22095082
 C                 -2.71205225   -0.39335899    0.54377244
 C                 -1.19994496   -0.12940323    2.37742793
 C                 -2.66929070   -0.10813518   -0.97313841
 C                 -1.06003922    0.78278560   -2.49747061
 C                  0.45807023   -3.57812648   -0.05243939
 H                 -1.24506747   -2.47666951    0.50207861
 C                  2.35281094   -2.38389186   -0.89440684
 C                  2.15546240    3.37467258    0.36107169
 O                  0.75470028    4.59139634    1.81186963
 H                  3.58620285    2.32268330   -0.77822578
 C                 -3.74085654   -0.78001415    1.32496215
 C                 -2.23213306   -0.51894276    3.24426072
 H                 -0.23935246    0.15935966    2.75321974
 C                 -3.65089966   -0.16846297   -1.89684841
 C                 -2.05229465    0.79253564   -3.49243942
 H                 -0.07422877    1.15036222   -2.69439932
 C                  1.75323681   -3.52525687   -0.49312309
 O                  0.00329033   -4.94377930    0.20088021
 H                  3.35403564   -2.38441350   -1.27406398
 C                  2.74880742    4.74014669    0.56841048
 C                  1.85698195    5.43106110    1.35005811
 C                 -3.50805654   -0.85730545    2.71906844
 H                 -4.69821330   -1.01484790    0.90724874
 O                 -1.97285416   -0.57849839    4.64961796
 C                 -3.34785220    0.28842713   -3.20195293
 H                 -4.62378828   -0.54168030   -1.65124654
 O                 -1.73502579    1.31108423   -4.78823875
 C                  2.27753856   -4.92922361   -0.39342886
 C                  1.24410804   -5.69726556    0.08588302
 C                  3.92992363    5.29771655    0.08978655
 C                  2.05455979    6.78293759    1.62909212
 H                 -4.29217263   -1.16790555    3.37680302
 C                 -3.15873743   -0.30601292    5.39036487
 H                 -4.09496171    0.25982903   -3.96791208
 C                 -2.45861218    0.61707952   -5.80557869
 C                  3.53505954   -5.44197701   -0.67694600
 C                  1.44306536   -7.04099974    0.40393163
 C                  4.17461535    6.65424649    0.38843672
 H                  4.62379293    4.72273444   -0.48817045
 C                  3.22997605    7.39843167    1.14415931
 H                  1.33691630    7.33871770    2.19953896
 C                 -2.84453795   -0.40119149    6.89429095
 H                 -3.91404378   -1.02078882    5.13641458
 H                 -3.50557858    0.67651485    5.15718936
 C                 -2.09052413    1.21549120   -7.17841748
 H                 -2.19998331   -0.42225155   -5.78624630
 H                 -3.50858960    0.72412371   -5.63708042
 C                  3.75780976   -6.80445278   -0.39559103
 H                  4.30535113   -4.82454568   -1.08472657
 C                  2.71767155   -7.59977079    0.15614099
 H                  0.65237523   -7.63334137    0.81732830
 H                  5.07400002    7.12489203    0.04266234
 H                  3.41070412    8.43373746    1.35098789
 O                 -4.02777412   -0.12653335    7.64798469
 H                 -2.49736031   -1.38695718    7.12318760
 H                 -2.08719587    0.31152932    7.14617782
 O                 -2.80720489    0.53527504   -8.21102161
 H                 -2.34873342    2.25394381   -7.19175728
 H                 -1.03890377    1.10720643   -7.34277009
 H                  4.71294264   -7.24040276   -0.59571878
 H                  2.90137605   -8.62835578    0.38507802
 H                 -3.83165896   -0.19175437    8.58552066
 H                 -2.57918989    0.91712348   -9.06313780

 1 7 1.0 6 1.0 2 1.0 3 1.0
 2 5 2.0 4 1.5
 3 8 1.5 9 2.0
 4 10 2.0 11 1.0
 5 12 1.5 13 1.0
 6 14 1.5 15 2.0
 7 16 1.5 17 2.0
 8 18 2.0 19 1.0
 9 20 1.5 13 1.0
 10 21 1.5 22 1.0
 11
 12 21 2.0 23 1.0
 13
 14 16 1.0 24 2.0
 15 25 1.5 26 1.0
 16 27 2.0
 17 28 1.5 29 1.0
 18 30 1.5 31 1.0
 19
 20 30 2.0 32 1.0
 21 33 1.0
 22 34 1.0
 23
 24 35 1.5 36 1.0
 25 35 1.5 37 1.0
 26
 27 38 1.5 39 1.0
 28 38 1.5 40 1.0
 29
 30 41 1.0
 31 42 1.0
 32
 33 34 1.5 43 1.5
 34 44 1.5
 35 45 1.0
 36
 37 46 1.0
 38 47 1.0
 39
 40 48 1.0
 41 49 1.5 42 1.5
 42 50 1.5
 43 51 1.5 52 1.0
 44 53 1.5 54 1.0
 45
 46 56 1.0 57 1.0 55 1.0
 47
 48 59 1.0 60 1.0 58 1.0
 49 61 1.5 62 1.0
 50 63 1.5 64 1.0
 51 53 1.5 65 1.0
 52
 53 66 1.0
 54
 55 69 1.0 68 1.0 67 1.0
 56
 57
 58 72 1.0 71 1.0 70 1.0
 59
 60
 61 63 1.5 73 1.0
 62
 63 74 1.0
 64
 65
 66
 67 75 1.0
 68
 69
 70 76 1.0
 71
 72
 73
 74
 75
 76

