%chk=PC-DBFX_OPT_WB97XD_6-311++GDP_G_251023.chk
# opt wb97xd/6-311++g(d,p) geom=connectivity

Title Card Required

0 1
 C                 -3.76872831    0.81238258   -3.02269547
 C                 -3.89844897    0.83171115   -1.61690827
 C                 -2.82591904    0.46778751   -0.89025913
 C                 -1.62067782    0.13457751   -1.46786130
 C                 -1.47329072    0.00465089   -2.79149022
 C                 -2.54494678    0.39740934   -3.60791679
 H                 -4.58804008    1.10911535   -3.64273430
 H                 -4.81303057    1.12154153   -1.14662112
 H                 -0.56178763   -0.36925709   -3.20992983
 C                 -2.68363143    0.30939828    0.62925201
 C                 -1.38852753   -0.10331164    0.91155128
 C                 -3.61399097    0.49060260    1.58295638
 C                 -1.01876534   -0.48330700    2.15422881
 C                 -3.26360395    0.16623992    2.90586823
 H                 -4.58756237    0.86095390    1.33954548
 C                 -1.97101178   -0.34081886    3.19334529
 H                 -0.04074364   -0.86970211    2.34941473
 H                 -3.97469328    0.30017956    3.69426158
 C                 -0.54039026   -0.03028631   -0.38823335
 C                  0.33328405    1.22669566   -0.39278084
 C                  1.63601837    1.17116732    0.03279437
 C                 -0.22136700    2.43876060   -0.86295540
 C                  2.43193835    2.33292821   -0.00678730
 C                  0.57231483    3.52191455   -0.91906541
 H                 -1.24488156    2.49083210   -1.17305800
 C                  1.86308127    3.46367048   -0.46622318
 H                  3.45038935    2.31560764    0.32089996
 C                  0.38316720   -1.24351560   -0.60521393
 C                 -0.11042114   -2.38350228   -1.27920704
 C                  1.68243696   -1.20740442   -0.15510705
 C                  0.73036966   -3.41594406   -1.48856066
 H                 -1.12513548   -2.42087479   -1.62163926
 C                  2.52390007   -2.31933379   -0.35537770
 C                  2.01037382   -3.38358280   -0.99605998
 H                  3.53433071   -2.31721753   -0.00521754
 O                  2.20617630   -0.05167682    0.52150485
 O                 -2.36073160    0.38881262   -5.02504663
 O                 -1.63847324   -0.70007183    4.54162877
 C                 -3.57384927    0.19374221   -5.74932987
 H                 -3.98478193   -0.76840961   -5.52121170
 H                 -4.28301696    0.95115380   -5.48687350
 C                 -3.24481465    0.28723684   -7.24761002
 H                 -2.83013738    1.25228911   -7.45503204
 H                 -2.53323133   -0.47048275   -7.50109512
 C                 -2.39980303    0.11113034    5.44995759
 H                 -3.44331827   -0.02759372    5.25850678
 H                 -2.14309052    1.13964871    5.30523685
 C                 -2.09457334   -0.29224397    6.90830580
 H                 -1.05283624   -0.15227576    7.10972491
 H                 -2.35142862   -1.32024209    7.05268012
 O                 -4.42387965    0.10082528   -8.02940581
 O                 -2.86780627    0.52141268    7.79874985
 C                 -4.06204856    0.22998982   -9.40648699
 C                 -2.63947628    0.12424477    9.15655784
 H                 -1.60186281    0.22986057    9.39347292
 H                 -3.21927610    0.74389471    9.80975823
 H                 -2.93209164   -0.89754216    9.28338513
 C                 -4.77333345   -0.60878144  -10.48431531
 H                 -4.09671372   -0.79231649  -11.29263778
 H                 -5.08713373   -1.54027964  -10.06319675
 H                 -5.62603960   -0.07403109  -10.84528691
 O                 -3.15373357    1.03437358   -9.74029969
 C                  1.39267226    5.63345270   -1.07117812
 C                  2.41249128    4.85582874   -0.58291276
 C                  3.66827206    5.35825799   -0.27161903
 C                  3.86242242    6.74717299   -0.40544633
 C                  2.79358241    7.57855941   -0.83600568
 C                  1.54209151    7.01702967   -1.17212066
 H                  4.45565823    4.71595172    0.06158133
 H                  4.81609032    7.17396661   -0.18225270
 H                  2.93571679    8.63750144   -0.90830784
 H                  0.73279681    7.63756843   -1.49972545
 C                  3.10723704   -7.35792778   -1.96794626
 C                  4.13066662   -6.57262295   -1.37567695
 C                  3.88174760   -5.22837135   -1.03256403
 C                  2.61607298   -4.72226140   -1.30791656
 C                  1.64034028   -5.44644532   -1.94324056
 C                  1.84622975   -6.79028691   -2.25359797
 H                  3.29281694   -8.38601724   -2.20240415
 H                  5.09331454   -7.00279111   -1.18668569
 H                  4.63460367   -4.62230547   -0.57404199
 H                  1.06914273   -7.37452993   -2.70233100
 O                  0.22082230    4.84139609   -1.44060916
 O                  0.44786857   -4.64811402   -2.22263179

 1 2 1.5 6 1.5 7 1.0
 2 3 2.0 8 1.0
 3 4 1.5 10 1.0
 4 5 2.0 19 1.0
 5 6 1.5 9 1.0
 6 37 1.0
 7
 8
 9
 10 11 1.5 12 2.0
 11 13 2.0 19 1.0
 12 14 1.5 15 1.0
 13 16 1.5 17 1.0
 14 16 1.5 18 1.0
 15
 16 38 1.0
 17
 18
 19 20 1.0 28 1.0
 20 21 2.0 22 1.5
 21 23 1.5 36 1.0
 22 24 2.0 25 1.0
 23 26 2.0 27 1.0
 24 26 1.5 83 1.0
 25
 26 64 1.0
 27
 28 29 1.5 30 2.0
 29 31 2.0 32 1.0
 30 33 1.5 36 1.0
 31 34 1.5 84 1.0
 32
 33 34 2.0 35 1.0
 34 76 1.0
 35
 36
 37 39 1.0
 38 45 1.0
 39 40 1.0 41 1.0 42 1.0
 40
 41
 42 43 1.0 44 1.0 51 1.0
 43
 44
 45 46 1.0 47 1.0 48 1.0
 46
 47
 48 49 1.0 50 1.0 52 1.0
 49
 50
 51 53 1.0
 52 54 1.0
 53 58 1.0 62 2.0
 54 55 1.0 56 1.0 57 1.0
 55
 56
 57
 58 59 1.0 60 1.0 61 1.0
 59
 60
 61
 62
 63 64 1.5 68 1.5 83 1.0
 64 65 1.5
 65 66 1.5 69 1.0
 66 67 1.5 70 1.0
 67 68 1.5 71 1.0
 68 72 1.0
 69
 70
 71
 72
 73 74 1.5 78 1.5 79 1.0
 74 75 1.5 80 1.0
 75 76 1.5 81 1.0
 76 77 1.5
 77 78 1.5 84 1.0
 78 82 1.0
 79
 80
 81
 82
 83
 84

