%nprocshared=1
%mem=4GB
%chk=FX_EN_WB97XD_6-311++GDP_G_251023.chk
# wb97xd/6-311++g(d,p) geom=connectivity polar cphf=rdfreq

Title Card Required

0 1
 C                 -3.02060400   -2.47059300    0.00050400
 C                 -1.65816500   -2.76658600    0.00025900
 C                 -0.73356200   -1.73567000    0.00010600
 C                 -1.17949500   -0.40835200    0.00020200
 C                 -2.51996600   -0.09777800    0.00043400
 C                 -3.44961200   -1.14176300    0.00058000
 H                 -3.73585700   -3.28235000    0.00065300
 H                 -1.33821600   -3.80309300    0.00020000
 H                 -2.87206700    0.92768100    0.00049500
 C                  0.73472500   -1.73543800   -0.00016500
 C                  1.18024500   -0.40798200   -0.00023500
 C                  1.65964900   -2.76607200   -0.00034000
 C                  2.52062600   -0.09700300   -0.00045900
 C                  3.02199600   -2.46966100   -0.00057800
 H                  1.34001700   -3.80267600   -0.00030000
 C                  3.45059700   -1.14069800   -0.00062700
 H                  2.87240000    0.92856600   -0.00049900
 H                  3.73749000   -3.28120400   -0.00074500
 C                  0.00024500    0.56375400   -0.00000600
 C                  0.00021900    1.42788400    1.25058000
 C                 -0.00210800    2.81418600    1.17890200
 C                  0.00217300    0.83760000    2.51705100
 C                 -0.00252300    3.59891100    2.33182000
 C                  0.00178800    1.60093400    3.66984900
 H                  0.00401300   -0.24566400    2.58360200
 C                 -0.00059600    2.99240800    3.57333600
 H                 -0.00434800    4.67688300    2.22421300
 H                  0.00332400    1.11908100    4.64022900
 H                 -0.00091700    3.60296500    4.46900100
 C                 -0.00024300    1.42791200   -1.25057200
 C                  0.00124300    0.83765700   -2.51705700
 C                 -0.00254700    2.81421200   -1.17886200
 C                  0.00042700    1.60101700   -3.66983700
 H                  0.00306300   -0.24560500   -2.58363300
 C                 -0.00339200    3.59896400   -2.33176100
 C                 -0.00192500    2.99249000   -3.57329100
 H                  0.00160700    1.11918700   -4.64022900
 H                 -0.00518000    4.67693300   -2.22412800
 H                 -0.00257900    3.60306600   -4.46894200
 O                 -0.00416300    3.50332200    0.00002800
 O                 -4.75385000   -0.76362700    0.00086200
 O                  4.75471900   -0.76215900   -0.00090400
 C                 -5.75145300   -1.76318100    0.00038300
 H                 -5.67053000   -2.39717100   -0.89060600
 H                 -5.67118800   -2.39741000    0.89126400
 C                 -7.08684100   -1.04782800    0.00001000
 H                 -7.15538100   -0.41033400    0.88977200
 H                 -7.15479100   -0.41015100   -0.88966500
 C                  5.75263500   -1.76140300   -0.00039100
 H                  5.67260800   -2.39564900   -0.89128200
 H                  5.67187000   -2.39542700    0.89058800
 C                  7.08780200   -1.04563800    0.00004700
 H                  7.15551900   -0.40795100    0.88973300
 H                  7.15618400   -0.40811300   -0.88970400
 O                 -8.08302200   -2.05326500   -0.00043500
 H                 -8.94483100   -1.63800800   -0.00034800
 O                  8.08428900   -2.05077200    0.00052200
 H                  8.94597200   -1.63525400    0.00045300

 1 2 1.5 6 1.5 7 1.0
 2 3 2.0 8 1.0
 3 4 1.5 10 1.0
 4 5 2.0 19 1.0
 5 6 1.5 9 1.0
 6 41 1.0
 7
 8
 9
 10 11 1.5 12 2.0
 11 13 2.0 19 1.0
 12 14 1.5 15 1.0
 13 16 1.5 17 1.0
 14 16 1.5 18 1.0
 15
 16 42 1.0
 17
 18
 19 20 1.0 30 1.0
 20 21 1.5 22 1.5
 21 23 1.5 40 1.0
 22 24 2.0 25 1.0
 23 26 2.0 27 1.0
 24 26 1.5 28 1.0
 25
 26 29 1.0
 27
 28
 29
 30 31 1.5 32 1.5
 31 33 2.0 34 1.0
 32 35 1.5 40 1.0
 33 36 1.5 37 1.0
 34
 35 36 2.0 38 1.0
 36 39 1.0
 37
 38
 39
 40
 41 43 1.0
 42 49 1.0
 43 44 1.0 45 1.0 46 1.0
 44
 45
 46 47 1.0 48 1.0 55 1.0
 47
 48
 49 50 1.0 51 1.0 52 1.0
 50
 51
 52 53 1.0 54 1.0 57 1.0
 53
 54
 55 56 1.0
 56
 57 58 1.0
 58

486.1nm 587.6nm 589.3nm 656.3nm
