%nprocshared=1
%mem=4GB
%chk=PC-FX_EN_WB97XD_6-311++GDP_G_251025.chk
# wb97xd/6-311++g(d,p) geom=connectivity polar cphf=rdfreq

Title Card Required

0 1
 C                  2.57356800   -2.17776000   -0.00008800
 C                  1.22497900   -2.53304700   -0.00006600
 C                  0.25664400   -1.54349300   -0.00003500
 C                  0.64390100   -0.19768300   -0.00002600
 C                  1.96950100    0.17126100   -0.00004600
 C                  2.94263000   -0.83178700   -0.00007700
 H                  3.32271400   -2.95851300   -0.00011400
 H                  0.95060900   -3.58252500   -0.00007500
 H                  2.27741900    1.21092400   -0.00003800
 C                 -1.21010800   -1.60754400   -0.00000800
 C                 -1.71339100   -0.30095000    0.00001800
 C                 -2.08833300   -2.67841300   -0.00000600
 C                 -3.06646900   -0.04999600    0.00004500
 C                 -3.46235700   -2.44277800    0.00002300
 H                 -1.72303500   -3.69982700   -0.00002400
 C                 -3.94926300   -1.13391100    0.00004600
 H                 -3.46305900    0.95901900    0.00006300
 H                 -4.14167300   -3.28490900    0.00002900
 C                 -0.57860300    0.72159800    0.00000900
 C                 -0.60839400    1.58572800   -1.25028600
 C                 -0.53935300    2.97046300   -1.17860800
 C                 -0.68259700    0.99813300   -2.51571600
 C                 -0.54185100    3.75618600   -2.33063000
 C                 -0.68571300    1.76274800   -3.66785800
 H                 -0.73767100   -0.08371700   -2.58232900
 C                 -0.61375700    3.15223800   -3.57145300
 H                 -0.48738500    4.83280200   -2.22319500
 H                 -0.74331800    1.28322800   -4.63772000
 H                 -0.61546100    3.76355000   -4.46660900
 C                 -0.60834600    1.58569600    1.25032800
 C                 -0.68250000    0.99806700    2.51574500
 C                 -0.53930700    2.97043200    1.17868300
 C                 -0.68557200    1.76265200    3.66790800
 H                 -0.73757200   -0.08378400    2.58233300
 C                 -0.54176000    3.75612500    2.33072600
 C                 -0.61361900    3.15214400    3.57153600
 H                 -0.74313900    1.28310700    4.63776000
 H                 -0.48729900    4.83274400    2.22331700
 H                 -0.61528900    3.76343300    4.46670900
 O                 -0.46300600    3.65578300    0.00004500
 O                  4.23090100   -0.39536400   -0.00010000
 O                 -5.26864700   -0.81366700    0.00008100
 C                  5.26879700   -1.34927300   -0.00006900
 H                  5.21532900   -1.98684600    0.89081800
 H                  5.21537500   -1.98685700   -0.89095200
 C                  6.56302800   -0.56337700   -0.00004500
 H                  6.63719300    0.07102800   -0.88563100
 H                  6.63719100    0.07098700    0.88557100
 C                 -6.22069500   -1.85721700   -0.00002700
 H                 -6.11113000   -2.48673000    0.89091500
 H                 -6.11102100   -2.48663900   -0.89102100
 C                 -7.58617000   -1.20121200   -0.00007100
 H                 -7.69212800   -0.56317600   -0.88944200
 H                 -7.69219300   -0.56320400    0.88931300
 O                  7.61261700   -1.53371600   -0.00006900
 O                 -8.54243100   -2.22957900   -0.00012400
 C                  8.86905000   -1.05097100    0.00002300
 C                 -9.86180500   -1.74617200   -0.00018700
 H                -10.06487600   -1.13802800   -0.89273900
 H                -10.52540500   -2.61075500   -0.00022000
 H                -10.06496200   -1.13803000    0.89234700
 C                  9.87494000   -2.16698000    0.00017200
 H                 10.87907800   -1.74906500    0.00033300
 H                  9.73064400   -2.79518700    0.88138700
 H                  9.73091300   -2.79517000   -0.88109800
 O                  9.12027900    0.12363100    0.00023300

 1 2 1.5 6 1.5 7 1.0
 2 3 2.0 8 1.0
 3 4 1.5 10 1.0
 4 5 2.0 19 1.0
 5 6 1.5 9 1.0
 6 41 1.0
 7
 8
 9
 10 11 1.5 12 2.0
 11 13 2.0 19 1.0
 12 14 1.5 15 1.0
 13 16 1.5 17 1.0
 14 16 1.5 18 1.0
 15
 16 42 1.0
 17
 18
 19 20 1.0 30 1.0
 20 21 1.5 22 1.5
 21 23 1.5 40 1.0
 22 24 2.0 25 1.0
 23 26 2.0 27 1.0
 24 26 1.5 28 1.0
 25
 26 29 1.0
 27
 28
 29
 30 31 1.5 32 1.5
 31 33 2.0 34 1.0
 32 35 1.5 40 1.0
 33 36 1.5 37 1.0
 34
 35 36 2.0 38 1.0
 36 39 1.0
 37
 38
 39
 40
 41 43 1.0
 42 49 1.0
 43 44 1.0 45 1.0 46 1.0
 44
 45
 46 47 1.0 48 1.0 55 1.0
 47
 48
 49 50 1.0 51 1.0 52 1.0
 50
 51
 52 53 1.0 54 1.0 56 1.0
 53
 54
 55 57 1.0
 56 58 1.0
 57 62 1.0 66 2.0
 58 59 1.0 60 1.0 61 1.0
 59
 60
 61
 62 63 1.0 64 1.0 65 1.0
 63
 64
 65
 66

486.1nm 587.6nm 589.3nm 656.3nm
