%nprocshared=1
%mem=4GB
%chk=XRD-FX_EN_WB97XD_6-311++GDP_G_251029.chk
# wb97xd/6-311++g(d,p) polar cphf=rdfreq

Title Card Required

0 1
O       2.568739   14.703639    7.290381
O      -0.328394   16.706338   11.856717
O       1.495964    8.017603    8.413291
C       3.330824   14.160380    8.310585
C       4.649457   14.607531    8.378570
H       4.972988   15.232149    7.755184
C       5.470440   14.122942    9.369596
H       6.355344   14.432982    9.437288
C       5.002665   13.185529   10.263605
H       5.573464   12.839023   10.925068
C       3.694331   12.756692   10.185846
H       3.382703   12.118946   10.801937
C       2.822964   13.247278    9.214515
C       1.345899   12.872572    9.228229
C       0.704931   13.265267    7.896405
C      -0.550332   12.784406    7.530077
H      -0.988657   12.169674    8.090000
C      -1.165065   13.192174    6.360774
H      -2.015542   12.860903    6.135229
C      -0.526893   14.087935    5.524099
H      -0.944535   14.368478    4.730315
C       0.717033   14.568310    5.851329
H       1.156666   15.171697    5.279880
C       1.324758   14.156004    7.036680
C       0.643196   13.559262   10.410370
C       0.493130   14.908981   10.614615
H       0.846416   15.527765   10.001588
C      -0.193645   15.345922   11.749488
C      -1.086705   17.232903   12.935131
H      -1.127210   18.199164   12.860144
H      -1.985307   16.868246   12.906828
H      -0.665809   16.989798   13.774870
C      -0.687890   14.422609   12.669174
H      -1.143391   14.723411   13.434510
C      -0.511590   13.058142   12.460844
H      -0.836838   12.441141   13.090940
C       0.146944   12.605805   11.320282
C       0.432013   11.259003   10.786619
C       0.124360    9.983674   11.240334
H      -0.320276    9.870387   12.060670
C       0.477172    8.869929   10.476750
H       0.270864    8.005934   10.785160
C       1.131782    9.035078    9.259449
C       1.011312    6.708564    8.692523
H       1.342627    6.091401    8.021287
H       1.320080    6.429479    9.568589
H       0.041385    6.712777    8.677789
C       1.467514   10.310569    8.808943
H       1.929943   10.423532    7.998236
C       1.113529   11.401625    9.567713

486.1nm 587.6nm 589.3nm 656.3nm
